<number of tasks>
29

<cycle time>
36

<task times>
1 7
2 19
3 15
4 5
5 12
6 10
7 8
8 16
9 2
10 6
11 21
12 10
13 9
14 4
15 14
16 7
17 14
18 17
19 10
20 16
21 1
22 9
23 25
24 14
25 14
26 2
27 10
28 7
29 20

<precedence relations>
1,3
1,25
2,6
2,26
3,4
4,5
5,8
5,13
6,8
7,9
7,12
7,25
8,11
8,16
9,10
10,14
10,15
11,17
12,15
13,17
14,16
15,19
16,18
17,20
18,22
19,21
20,23
21,22
22,23
23,24
23,28
24,29
25,29
26,27
27,29
28,29

<setup times forward>
1,12:1
1,14:1
1,19:1
1,21:1
1,26:1
2,4:1
2,12:1
2,14:1
2,19:1
2,21:1
2,26:1
3,4:1
3,12:1
3,14:1
3,19:1
3,21:1
3,26:1
4,2:1
4,5:1
4,6:1
4,7:1
4,9:1
4,10:1
4,15:1
4,25:1
4,27:1
5,12:1
5,14:1
5,19:1
5,21:1
5,26:1
6,4:1
6,12:1
6,14:1
6,19:1
6,21:1
6,26:1
7,4:1
7,11:1
7,12:1
7,20:1
7,26:1
8,11:1
8,12:1
8,14:1
8,16:1
8,19:1
8,21:1
8,26:1
9,4:1
9,11:1
9,12:1
9,20:1
9,26:1
10,4:1
10,11:1
10,12:1
10,14:1
10,20:1
10,26:1
11,7:1
11,9:1
11,10:1
11,13:1
11,15:1
11,17:1
11,18:1
11,25:1
11,27:1
12,1:1
12,2:1
12,3:1
12,5:1
12,6:1
12,8:1
12,9:1
12,10:1
12,13:1
12,15:1
12,17:1
12,18:1
12,25:1
12,27:1
13,11:1
13,12:1
13,14:1
13,16:1
13,19:1
13,21:1
13,22:1
13,26:1
14,1:1
14,2:1
14,3:1
14,5:1
14,6:1
14,8:1
14,13:1
14,15:1
14,17:1
14,25:1
14,27:1
15,4:1
15,11:1
15,14:1
15,16:1
15,19:1
15,20:1
15,26:1
16,13:1
16,15:1
16,17:1
16,18:1
16,25:1
16,27:1
17,12:1
17,14:1
17,16:1
17,19:1
17,20:1
17,21:1
17,22:1
17,26:1
18,11:1
18,12:1
18,19:1
18,20:1
18,21:1
18,22:1
18,26:1
19,1:1
19,2:1
19,3:1
19,5:1
19,6:1
19,8:1
19,13:1
19,17:1
19,18:1
19,25:1
19,27:1
20,7:1
20,9:1
20,10:1
20,15:1
20,18:1
20,23:1
20,25:1
20,27:1
21,1:1
21,2:1
21,3:1
21,5:1
21,6:1
21,8:1
21,13:1
21,17:1
21,18:1
21,25:1
21,27:1
22,13:1
22,17:1
22,23:1
22,25:1
22,27:1
23,24:1
23,26:1
24,25:1
24,27:1
24,28:1
25,4:1
25,11:1
25,12:1
25,14:1
25,16:1
25,19:1
25,20:1
25,21:1
25,22:1
25,24:1
25,26:1
25,29:1
26,1:1
26,3:1
26,5:1
26,6:1
26,7:1
26,8:1
26,9:1
26,10:1
26,13:1
26,15:1
26,17:1
26,18:1
26,23:1
26,25:1
26,27:1
26,28:1
27,4:1
27,11:1
27,12:1
27,14:1
27,16:1
27,19:1
27,20:1
27,21:1
27,22:1
27,24:1
27,29:1
28,24:1
28,26:1
28,29:1

<setup times backward>
1,12:1
1,14:1
1,19:1
1,21:1
1,26:1
2,4:1
2,12:1
2,14:1
2,19:1
2,21:1
3,12:1
3,14:1
3,19:1
3,21:1
3,26:1
5,4:1
5,12:1
5,14:1
5,19:1
5,21:1
5,26:1
6,4:1
6,12:1
6,14:1
6,19:1
6,21:1
6,26:1
7,4:1
7,11:1
7,20:1
7,26:1
8,4:1
8,12:1
8,14:1
8,19:1
8,21:1
8,26:1
9,4:1
9,11:1
9,12:1
9,20:1
9,26:1
10,4:1
10,11:1
10,12:1
10,20:1
10,26:1
13,4:1
13,11:1
13,12:1
13,14:1
13,16:1
13,19:1
13,21:1
13,22:1
13,26:1
15,4:1
15,11:1
15,12:1
15,14:1
15,16:1
15,20:1
15,26:1
17,4:1
17,11:1
17,12:1
17,14:1
17,16:1
17,19:1
17,21:1
17,22:1
17,26:1
18,4:1
18,11:1
18,12:1
18,14:1
18,16:1
18,19:1
18,20:1
18,21:1
18,26:1
23,4:1
23,11:1
23,12:1
23,14:1
23,16:1
23,19:1
23,20:1
23,21:1
23,22:1
23,26:1
25,4:1
25,11:1
25,12:1
25,14:1
25,16:1
25,19:1
25,20:1
25,21:1
25,22:1
25,24:1
25,26:1
27,4:1
27,11:1
27,12:1
27,14:1
27,16:1
27,19:1
27,20:1
27,21:1
27,22:1
27,24:1
27,26:1
28,4:1
28,11:1
28,12:1
28,14:1
28,16:1
28,19:1
28,20:1
28,21:1
28,22:1
28,24:1
28,26:1

<end>

<optimal SALBP-1 value>
10


<rand seed>
467321153

